(set-logic QF_UF)
(declare-fun A0 () Bool)
(declare-fun A1 () Bool)
(declare-fun A2 () Bool)
(declare-fun A3 () Bool)
(declare-fun A4 () Bool)
(declare-fun A5 () Bool)
(declare-fun A6 () Bool)
(declare-fun A7 () Bool)
(declare-fun A8 () Bool)
(declare-fun A9 () Bool)
(declare-fun A11 () Bool)
(declare-fun A12 () Bool)
(declare-fun A14 () Bool)
(declare-fun A15 () Bool)
(declare-fun A16 () Bool)
(declare-fun A17 () Bool)
(declare-fun A18 () Bool)
(declare-fun A19 () Bool)
(declare-fun A20 () Bool)
(declare-fun A21 () Bool)
(declare-fun A22 () Bool)
(declare-fun A23 () Bool)
(declare-fun A24 () Bool)
(assert (let ((.def_0 (not A17))) (let ((.def_1 (and A3 .def_0))) (let ((.def_2 (not .def_1))) (let ((.def_3 (not A0))) (let ((.def_4 (or A18 .def_3))) (let ((.def_5 (or .def_4 .def_2))) (let ((.def_6 (not A15))) (let ((.def_7 (or A0 .def_6))) (let ((.def_8 (not .def_7))) (let ((.def_9 (not A9))) (let ((.def_10 (and .def_9 A7))) (let ((.def_11 (not .def_10))) (let ((.def_12 (or .def_11 .def_8))) (let ((.def_13 (not .def_12))) (let ((.def_14 (and .def_13 .def_5))) (let ((.def_15 (= .def_0 A23))) (let ((.def_16 (not .def_15))) (let ((.def_17 (not A20))) (let ((.def_18 (not A12))) (let ((.def_19 (or .def_18 .def_17))) (let ((.def_20 (and .def_19 .def_16))) (let ((.def_21 (not A14))) (let ((.def_22 (not A23))) (let ((.def_23 (or .def_22 .def_21))) (let ((.def_24 (not A22))) (let ((.def_25 (not A18))) (let ((.def_26 (or .def_25 .def_24))) (let ((.def_27 (not .def_26))) (let ((.def_28 (or .def_27 .def_23))) (let ((.def_29 (or .def_28 .def_20))) (let ((.def_30 (not .def_29))) (let ((.def_31 (= .def_30 .def_14))) (let ((.def_32 (not A19))) (let ((.def_33 (or .def_32 .def_21))) (let ((.def_34 (not .def_33))) (let ((.def_35 (not A2))) (let ((.def_36 (or .def_35 A12))) (let ((.def_37 (not .def_36))) (let ((.def_38 (and .def_37 .def_34))) (let ((.def_39 (not .def_38))) (let ((.def_40 (not A24))) (let ((.def_41 (or A14 .def_40))) (let ((.def_42 (not .def_41))) (let ((.def_43 (not A4))) (let ((.def_44 (and A8 .def_43))) (let ((.def_45 (not .def_44))) (let ((.def_46 (or .def_45 .def_42))) (let ((.def_47 (and .def_46 .def_39))) (let ((.def_48 (= A20 .def_17))) (let ((.def_49 (and A5 A6))) (let ((.def_50 (or .def_49 .def_48))) (let ((.def_51 (and A22 A1))) (let ((.def_52 (not .def_51))) (let ((.def_53 (not A16))) (let ((.def_54 (or A3 .def_53))) (let ((.def_55 (or .def_54 .def_52))) (let ((.def_56 (or .def_55 .def_50))) (let ((.def_57 (not .def_56))) (let ((.def_58 (or .def_57 .def_47))) (let ((.def_59 (not .def_58))) (let ((.def_60 (and .def_59 .def_31))) (let ((.def_61 (or A4 A18))) (let ((.def_62 (or A23 A15))) (let ((.def_63 (or .def_62 .def_61))) (let ((.def_64 (not .def_63))) (let ((.def_65 (or A24 .def_18))) (let ((.def_66 (not A6))) (let ((.def_67 (or .def_66 A7))) (let ((.def_68 (not .def_67))) (let ((.def_69 (or .def_68 .def_65))) (let ((.def_70 (not .def_69))) (let ((.def_71 (and .def_70 .def_64))) (let ((.def_72 (not .def_71))) (let ((.def_73 (and A9 A1))) (let ((.def_74 (not .def_73))) (let ((.def_75 (and A8 .def_6))) (let ((.def_76 (and .def_75 .def_74))) (let ((.def_77 (not A1))) (let ((.def_78 (or .def_77 A19))) (let ((.def_79 (not .def_78))) (let ((.def_80 (not A3))) (let ((.def_81 (= .def_9 .def_80))) (let ((.def_82 (not .def_81))) (let ((.def_83 (or .def_82 .def_79))) (let ((.def_84 (and .def_83 .def_76))) (let ((.def_85 (not .def_84))) (let ((.def_86 (and .def_85 .def_72))) (let ((.def_87 (not .def_86))) (let ((.def_88 (or A20 .def_43))) (let ((.def_89 (not .def_88))) (let ((.def_90 (not A11))) (let ((.def_91 (and .def_90 A1))) (let ((.def_92 (not .def_91))) (let ((.def_93 (and .def_92 .def_89))) (let ((.def_94 (not .def_93))) (let ((.def_95 (= A12 .def_53))) (let ((.def_96 (and A17 A8))) (let ((.def_97 (and .def_96 .def_95))) (let ((.def_98 (or .def_97 .def_94))) (let ((.def_99 (not .def_98))) (let ((.def_100 (or A21 A1))) (let ((.def_101 (or .def_9 .def_35))) (let ((.def_102 (not .def_101))) (let ((.def_103 (or .def_102 .def_100))) (let ((.def_104 (not .def_103))) (let ((.def_105 (and A4 .def_9))) (let ((.def_106 (not .def_105))) (let ((.def_107 (or .def_24 A2))) (let ((.def_108 (and .def_107 .def_106))) (let ((.def_109 (not .def_108))) (let ((.def_110 (or .def_109 .def_104))) (let ((.def_111 (not .def_110))) (let ((.def_112 (= .def_111 .def_99))) (let ((.def_113 (and .def_112 .def_87))) (let ((.def_114 (not .def_113))) (let ((.def_115 (and .def_114 .def_60))) .def_115)))))))))))))))))))))))))))))))))))))))))))))))))))))))))))))))))))))))))))))))))))))))))))))))))))))))))))))))))))))
(check-sat)
